# interactions involving Drude particles
pair_coeff    *  22* coul/long/cs
# Thole dipole-dipole damping if more than 1 Drude per molecule
pair_coeff    1    1 thole   1.208
pair_coeff    1    2 thole   1.549
pair_coeff    1    4 thole   1.417
pair_coeff    1    5 thole   1.461
pair_coeff    1    7 thole   1.331
pair_coeff    1    9 thole   2.305
pair_coeff    1   10 thole   1.549
pair_coeff    1   11 thole   1.272
pair_coeff    1   12 thole   1.108
pair_coeff    1   13 thole   1.176
pair_coeff    1   14 thole   1.331
pair_coeff    1   15 thole   1.331
pair_coeff    1   22 thole   1.208
pair_coeff    1   23 thole   1.549
pair_coeff    1   24 thole   1.417
pair_coeff    1   25 thole   1.461
pair_coeff    1   26 thole   1.331
pair_coeff    1   27 thole   2.305
pair_coeff    1   28 thole   1.549
pair_coeff    1   29 thole   1.272
pair_coeff    1   30 thole   1.108
pair_coeff    1   31 thole   1.176
pair_coeff    1   32 thole   1.331
pair_coeff    1   33 thole   1.331
pair_coeff    2    2 thole   1.985
pair_coeff    2    4 thole   1.816
pair_coeff    2    5 thole   1.873
pair_coeff    2    7 thole   1.706
pair_coeff    2    9 thole   2.955
pair_coeff    2   10 thole   1.985
pair_coeff    2   11 thole   1.630
pair_coeff    2   12 thole   1.420
pair_coeff    2   13 thole   1.507
pair_coeff    2   14 thole   1.706
pair_coeff    2   15 thole   1.706
pair_coeff    2   22 thole   1.549
pair_coeff    2   23 thole   1.985
pair_coeff    2   24 thole   1.816
pair_coeff    2   25 thole   1.873
pair_coeff    2   26 thole   1.706
pair_coeff    2   27 thole   2.955
pair_coeff    2   28 thole   1.985
pair_coeff    2   29 thole   1.630
pair_coeff    2   30 thole   1.420
pair_coeff    2   31 thole   1.507
pair_coeff    2   32 thole   1.706
pair_coeff    2   33 thole   1.706
pair_coeff    4    4 thole   1.662
pair_coeff    4    5 thole   1.714
pair_coeff    4    7 thole   1.561
pair_coeff    4    9 thole   2.704
pair_coeff    4   10 thole   1.816
pair_coeff    4   11 thole   1.492
pair_coeff    4   12 thole   1.299
pair_coeff    4   13 thole   1.379
pair_coeff    4   14 thole   1.561
pair_coeff    4   15 thole   1.561
pair_coeff    4   22 thole   1.417
pair_coeff    4   23 thole   1.816
pair_coeff    4   24 thole   1.662
pair_coeff    4   25 thole   1.714
pair_coeff    4   26 thole   1.561
pair_coeff    4   27 thole   2.704
pair_coeff    4   28 thole   1.816
pair_coeff    4   29 thole   1.492
pair_coeff    4   30 thole   1.299
pair_coeff    4   31 thole   1.379
pair_coeff    4   32 thole   1.561
pair_coeff    4   33 thole   1.561
pair_coeff    5    5 thole   1.768
pair_coeff    5    7 thole   1.610
pair_coeff    5    9 thole   2.789
pair_coeff    5   10 thole   1.873
pair_coeff    5   11 thole   1.539
pair_coeff    5   12 thole   1.340
pair_coeff    5   13 thole   1.422
pair_coeff    5   14 thole   1.610
pair_coeff    5   15 thole   1.610
pair_coeff    5   22 thole   1.461
pair_coeff    5   23 thole   1.873
pair_coeff    5   24 thole   1.714
pair_coeff    5   25 thole   1.768
pair_coeff    5   26 thole   1.610
pair_coeff    5   27 thole   2.789
pair_coeff    5   28 thole   1.873
pair_coeff    5   29 thole   1.539
pair_coeff    5   30 thole   1.340
pair_coeff    5   31 thole   1.422
pair_coeff    5   32 thole   1.610
pair_coeff    5   33 thole   1.610
pair_coeff    7    7 thole   1.467
pair_coeff    7    9 thole   2.541
pair_coeff    7   10 thole   1.706
pair_coeff    7   11 thole   1.402
pair_coeff    7   12 thole   1.221
pair_coeff    7   13 thole   1.295
pair_coeff    7   14 thole   1.467
pair_coeff    7   15 thole   1.467
pair_coeff    7   22 thole   1.331
pair_coeff    7   23 thole   1.706
pair_coeff    7   24 thole   1.561
pair_coeff    7   25 thole   1.610
pair_coeff    7   26 thole   1.467
pair_coeff    7   27 thole   2.541
pair_coeff    7   28 thole   1.706
pair_coeff    7   29 thole   1.402
pair_coeff    7   30 thole   1.221
pair_coeff    7   31 thole   1.295
pair_coeff    7   32 thole   1.467
pair_coeff    7   33 thole   1.467
pair_coeff    9    9 thole   4.400
pair_coeff    9   10 thole   2.955
pair_coeff    9   11 thole   2.427
pair_coeff    9   12 thole   2.114
pair_coeff    9   13 thole   2.244
pair_coeff    9   14 thole   2.541
pair_coeff    9   15 thole   2.541
pair_coeff    9   22 thole   2.305
pair_coeff    9   23 thole   2.955
pair_coeff    9   24 thole   2.704
pair_coeff    9   25 thole   2.789
pair_coeff    9   26 thole   2.541
pair_coeff    9   27 thole   4.400
pair_coeff    9   28 thole   2.955
pair_coeff    9   29 thole   2.427
pair_coeff    9   30 thole   2.114
pair_coeff    9   31 thole   2.244
pair_coeff    9   32 thole   2.541
pair_coeff    9   33 thole   2.541
pair_coeff   10   10 thole   1.985
pair_coeff   10   11 thole   1.630
pair_coeff   10   12 thole   1.420
pair_coeff   10   13 thole   1.507
pair_coeff   10   14 thole   1.706
pair_coeff   10   15 thole   1.706
pair_coeff   10   22 thole   1.549
pair_coeff   10   23 thole   1.985
pair_coeff   10   24 thole   1.816
pair_coeff   10   25 thole   1.873
pair_coeff   10   26 thole   1.706
pair_coeff   10   27 thole   2.955
pair_coeff   10   28 thole   1.985
pair_coeff   10   29 thole   1.630
pair_coeff   10   30 thole   1.420
pair_coeff   10   31 thole   1.507
pair_coeff   10   32 thole   1.706
pair_coeff   10   33 thole   1.706
pair_coeff   11   11 thole   1.339
pair_coeff   11   12 thole   1.166
pair_coeff   11   13 thole   1.238
pair_coeff   11   14 thole   1.402
pair_coeff   11   15 thole   1.402
pair_coeff   11   22 thole   1.272
pair_coeff   11   23 thole   1.630
pair_coeff   11   24 thole   1.492
pair_coeff   11   25 thole   1.539
pair_coeff   11   26 thole   1.402
pair_coeff   11   27 thole   2.427
pair_coeff   11   28 thole   1.630
pair_coeff   11   29 thole   1.339
pair_coeff   11   30 thole   1.166
pair_coeff   11   31 thole   1.238
pair_coeff   11   32 thole   1.402
pair_coeff   11   33 thole   1.402
pair_coeff   12   12 thole   1.016
pair_coeff   12   13 thole   1.078
pair_coeff   12   14 thole   1.221
pair_coeff   12   15 thole   1.221
pair_coeff   12   22 thole   1.108
pair_coeff   12   23 thole   1.420
pair_coeff   12   24 thole   1.299
pair_coeff   12   25 thole   1.340
pair_coeff   12   26 thole   1.221
pair_coeff   12   27 thole   2.114
pair_coeff   12   28 thole   1.420
pair_coeff   12   29 thole   1.166
pair_coeff   12   30 thole   1.016
pair_coeff   12   31 thole   1.078
pair_coeff   12   32 thole   1.221
pair_coeff   12   33 thole   1.221
pair_coeff   13   13 thole   1.144
pair_coeff   13   14 thole   1.295
pair_coeff   13   15 thole   1.295
pair_coeff   13   22 thole   1.176
pair_coeff   13   23 thole   1.507
pair_coeff   13   24 thole   1.379
pair_coeff   13   25 thole   1.422
pair_coeff   13   26 thole   1.295
pair_coeff   13   27 thole   2.244
pair_coeff   13   28 thole   1.507
pair_coeff   13   29 thole   1.238
pair_coeff   13   30 thole   1.078
pair_coeff   13   31 thole   1.144
pair_coeff   13   32 thole   1.295
pair_coeff   13   33 thole   1.295
pair_coeff   14   14 thole   1.467
pair_coeff   14   15 thole   1.467
pair_coeff   14   22 thole   1.331
pair_coeff   14   23 thole   1.706
pair_coeff   14   24 thole   1.561
pair_coeff   14   25 thole   1.610
pair_coeff   14   26 thole   1.467
pair_coeff   14   27 thole   2.541
pair_coeff   14   28 thole   1.706
pair_coeff   14   29 thole   1.402
pair_coeff   14   30 thole   1.221
pair_coeff   14   31 thole   1.295
pair_coeff   14   32 thole   1.467
pair_coeff   14   33 thole   1.467
pair_coeff   15   15 thole   1.467
pair_coeff   15   22 thole   1.331
pair_coeff   15   23 thole   1.706
pair_coeff   15   24 thole   1.561
pair_coeff   15   25 thole   1.610
pair_coeff   15   26 thole   1.467
pair_coeff   15   27 thole   2.541
pair_coeff   15   28 thole   1.706
pair_coeff   15   29 thole   1.402
pair_coeff   15   30 thole   1.221
pair_coeff   15   31 thole   1.295
pair_coeff   15   32 thole   1.467
pair_coeff   15   33 thole   1.467
pair_coeff   22   22 thole   1.208
pair_coeff   22   23 thole   1.549
pair_coeff   22   24 thole   1.417
pair_coeff   22   25 thole   1.461
pair_coeff   22   26 thole   1.331
pair_coeff   22   27 thole   2.305
pair_coeff   22   28 thole   1.549
pair_coeff   22   29 thole   1.272
pair_coeff   22   30 thole   1.108
pair_coeff   22   31 thole   1.176
pair_coeff   22   32 thole   1.331
pair_coeff   22   33 thole   1.331
pair_coeff   23   23 thole   1.985
pair_coeff   23   24 thole   1.816
pair_coeff   23   25 thole   1.873
pair_coeff   23   26 thole   1.706
pair_coeff   23   27 thole   2.955
pair_coeff   23   28 thole   1.985
pair_coeff   23   29 thole   1.630
pair_coeff   23   30 thole   1.420
pair_coeff   23   31 thole   1.507
pair_coeff   23   32 thole   1.706
pair_coeff   23   33 thole   1.706
pair_coeff   24   24 thole   1.662
pair_coeff   24   25 thole   1.714
pair_coeff   24   26 thole   1.561
pair_coeff   24   27 thole   2.704
pair_coeff   24   28 thole   1.816
pair_coeff   24   29 thole   1.492
pair_coeff   24   30 thole   1.299
pair_coeff   24   31 thole   1.379
pair_coeff   24   32 thole   1.561
pair_coeff   24   33 thole   1.561
pair_coeff   25   25 thole   1.768
pair_coeff   25   26 thole   1.610
pair_coeff   25   27 thole   2.789
pair_coeff   25   28 thole   1.873
pair_coeff   25   29 thole   1.539
pair_coeff   25   30 thole   1.340
pair_coeff   25   31 thole   1.422
pair_coeff   25   32 thole   1.610
pair_coeff   25   33 thole   1.610
pair_coeff   26   26 thole   1.467
pair_coeff   26   27 thole   2.541
pair_coeff   26   28 thole   1.706
pair_coeff   26   29 thole   1.402
pair_coeff   26   30 thole   1.221
pair_coeff   26   31 thole   1.295
pair_coeff   26   32 thole   1.467
pair_coeff   26   33 thole   1.467
pair_coeff   27   27 thole   4.400
pair_coeff   27   28 thole   2.955
pair_coeff   27   29 thole   2.427
pair_coeff   27   30 thole   2.114
pair_coeff   27   31 thole   2.244
pair_coeff   27   32 thole   2.541
pair_coeff   27   33 thole   2.541
pair_coeff   28   28 thole   1.985
pair_coeff   28   29 thole   1.630
pair_coeff   28   30 thole   1.420
pair_coeff   28   31 thole   1.507
pair_coeff   28   32 thole   1.706
pair_coeff   28   33 thole   1.706
pair_coeff   29   29 thole   1.339
pair_coeff   29   30 thole   1.166
pair_coeff   29   31 thole   1.238
pair_coeff   29   32 thole   1.402
pair_coeff   29   33 thole   1.402
pair_coeff   30   30 thole   1.016
pair_coeff   30   31 thole   1.078
pair_coeff   30   32 thole   1.221
pair_coeff   30   33 thole   1.221
pair_coeff   31   31 thole   1.144
pair_coeff   31   32 thole   1.295
pair_coeff   31   33 thole   1.295
pair_coeff   32   32 thole   1.467
pair_coeff   32   33 thole   1.467
pair_coeff   33   33 thole   1.467
