# Tang-Toennies charge-dipole damping
pair_coeff    1    8 coul/tt 4.5 1.0
pair_coeff    2    8 coul/tt 4.5 1.0
pair_coeff    4    8 coul/tt 4.5 1.0
pair_coeff    5    8 coul/tt 4.5 1.0
pair_coeff    7    8 coul/tt 4.5 1.0
pair_coeff    8    9 coul/tt 4.5 1.0
pair_coeff    8   10 coul/tt 4.5 1.0
pair_coeff    8   11 coul/tt 4.5 1.0
pair_coeff    8   12 coul/tt 4.5 1.0
pair_coeff    8   13 coul/tt 4.5 1.0
pair_coeff    8   14 coul/tt 4.5 1.0
pair_coeff    8   15 coul/tt 4.5 1.0
pair_coeff    8  22* coul/tt 4.5 1.0
pair_coeff    1    9 coul/tt 4.5 1.0 #cl cl
pair_coeff    2    9 coul/tt 4.5 1.0
pair_coeff    4    9 coul/tt 4.5 1.0
pair_coeff    5    9 coul/tt 4.5 1.0
pair_coeff    7    9 coul/tt 4.5 1.0
pair_coeff    9   10 coul/tt 4.5 1.0
pair_coeff    9   11 coul/tt 4.5 1.0
pair_coeff    9   12 coul/tt 4.5 1.0
pair_coeff    9   13 coul/tt 4.5 1.0
pair_coeff    9   15 coul/tt 4.5 1.0
pair_coeff    9   20 coul/tt 4.5 1.0
pair_coeff    9   21 coul/tt 4.5 1.0
pair_coeff    9  22* coul/tt 4.5 1.0
pair_coeff    1   20 coul/tt 4.5 1.0
pair_coeff    2   20 coul/tt 4.5 1.0
pair_coeff    4   20 coul/tt 4.5 1.0
pair_coeff    5   20 coul/tt 4.5 1.0
pair_coeff    7   20 coul/tt 4.5 1.0
pair_coeff   10   20 coul/tt 4.5 1.0
pair_coeff   11   20 coul/tt 4.5 1.0
pair_coeff   12   20 coul/tt 4.5 1.0
pair_coeff   13   20 coul/tt 4.5 1.0
pair_coeff   14   20 coul/tt 4.5 1.0
pair_coeff   15   20 coul/tt 4.5 1.0
pair_coeff   20  22* coul/tt 4.5 1.0
pair_coeff    1   21 coul/tt 4.5 1.0
pair_coeff    2   21 coul/tt 4.5 1.0
pair_coeff    4   21 coul/tt 4.5 1.0
pair_coeff    5   21 coul/tt 4.5 1.0
pair_coeff    7   21 coul/tt 4.5 1.0
pair_coeff   10   21 coul/tt 4.5 1.0
pair_coeff   11   21 coul/tt 4.5 1.0
pair_coeff   12   21 coul/tt 4.5 1.0
pair_coeff   13   21 coul/tt 4.5 1.0
pair_coeff   14   21 coul/tt 4.5 1.0
pair_coeff   15   21 coul/tt 4.5 1.0
pair_coeff   21  22* coul/tt 4.5 1.0
