pair_coeff    1    1 lj/cut/coul/long     0.170000     3.250000  # N4 N4
pair_coeff    1    2 lj/cut/coul/long     0.105924     3.372684  # N4 C1
pair_coeff    1    3 lj/cut/coul/long     0.071414     2.850439  # N4 H1
pair_coeff    1    4 lj/cut/coul/long     0.105924     3.372684  # N4 C1A
pair_coeff    1    5 lj/cut/coul/long     0.105924     3.372684  # N4 COL
pair_coeff    1    6 lj/cut/coul/long     0.071414     2.850439  # N4 HC
pair_coeff    1    7 lj/cut/coul/long     0.170000     3.184337  # N4 OH
pair_coeff    1    8 lj/cut/coul/long     0.000000     0.000000  # N4 HO
pair_coeff    1    9 lj/cut/coul/long     0.088547     3.444198  # N4 Cl ~
pair_coeff    1   10 lj/cut/coul/long     0.049481     3.372684  # N4 CC1 ~
pair_coeff    1   11 lj/cut/coul/long     0.049481     3.372684  # N4 CC2 ~
pair_coeff    1   12 lj/cut/coul/long     0.050959     3.396690  # N4 CC3 ~
pair_coeff    1   13 lj/cut/coul/long     0.088263     3.101612  # N4 OO1 ~
pair_coeff    1   14 lj/cut/coul/long     0.079414     3.184337  # N4 OO2 ~
pair_coeff    1   15 lj/cut/coul/long     0.079414     3.184337  # N4 OO3 ~
pair_coeff    1   16 lj/cut/coul/long     0.033360     2.850439  # N4 HH1 ~
pair_coeff    1   17 lj/cut/coul/long     0.033360     2.850439  # N4 HH2 ~
pair_coeff    1   18 lj/cut/coul/long     0.033360     2.850439  # N4 HH3 ~
pair_coeff    1   19 lj/cut/coul/long     0.033360     2.850439  # N4 HH4 ~
pair_coeff    1   20 lj/cut/coul/long     0.000000     0.000000  # N4 HH5 ~
pair_coeff    1   21 lj/cut/coul/long     0.000000     0.000000  # N4 HH6 ~
pair_coeff    2    2 lj/cut/coul/long     0.065999     3.500000  # C1 C1
pair_coeff    2    3 lj/cut/coul/long     0.044497     2.958040  # C1 H1
pair_coeff    2    4 lj/cut/coul/long     0.065999     3.500000  # C1 C1A
pair_coeff    2    5 lj/cut/coul/long     0.065999     3.500000  # C1 COL
pair_coeff    2    6 lj/cut/coul/long     0.044497     2.958040  # C1 HC
pair_coeff    2    7 lj/cut/coul/long     0.105924     3.304542  # C1 OH
pair_coeff    2    8 lj/cut/coul/long     0.000000     0.000000  # C1 HO
pair_coeff    2    9 lj/cut/coul/long     0.055172     3.574213  # C1 Cl ~
pair_coeff    2   10 lj/cut/coul/long     0.030831     3.500000  # C1 CC1 ~
pair_coeff    2   11 lj/cut/coul/long     0.030831     3.500000  # C1 CC2 ~
pair_coeff    2   12 lj/cut/coul/long     0.031752     3.524911  # C1 CC3 ~
pair_coeff    2   13 lj/cut/coul/long     0.054996     3.218695  # C1 OO1 ~
pair_coeff    2   14 lj/cut/coul/long     0.049481     3.304542  # C1 OO2 ~
pair_coeff    2   15 lj/cut/coul/long     0.049481     3.304542  # C1 OO3 ~
pair_coeff    2   16 lj/cut/coul/long     0.020786     2.958040  # C1 HH1 ~
pair_coeff    2   17 lj/cut/coul/long     0.020786     2.958040  # C1 HH2 ~
pair_coeff    2   18 lj/cut/coul/long     0.020786     2.958040  # C1 HH3 ~
pair_coeff    2   19 lj/cut/coul/long     0.020786     2.958040  # C1 HH4 ~
pair_coeff    2   20 lj/cut/coul/long     0.000000     0.000000  # C1 HH5 ~
pair_coeff    2   21 lj/cut/coul/long     0.000000     0.000000  # C1 HH6 ~
pair_coeff    3    3 lj/cut/coul/long     0.030000     2.500000  # H1 H1
pair_coeff    3    4 lj/cut/coul/long     0.044497     2.958040  # H1 C1A
pair_coeff    3    5 lj/cut/coul/long     0.044497     2.958040  # H1 COL
pair_coeff    3    6 lj/cut/coul/long     0.030000     2.500000  # H1 HC
pair_coeff    3    7 lj/cut/coul/long     0.071414     2.792848  # H1 OH
pair_coeff    3    8 lj/cut/coul/long     0.000000     0.000000  # H1 HO
pair_coeff    3    9 lj/cut/coul/long     0.037197     3.020761  # H1 Cl ~
pair_coeff    3   10 lj/cut/coul/long     0.020786     2.958040  # H1 CC1 ~
pair_coeff    3   11 lj/cut/coul/long     0.020786     2.958040  # H1 CC2 ~
pair_coeff    3   12 lj/cut/coul/long     0.021407     2.979094  # H1 CC3 ~
pair_coeff    3   13 lj/cut/coul/long     0.037078     2.720294  # H1 OO1 ~
pair_coeff    3   14 lj/cut/coul/long     0.033360     2.792848  # H1 OO2 ~
pair_coeff    3   15 lj/cut/coul/long     0.033360     2.792848  # H1 OO3 ~
pair_coeff    3   16 lj/cut/coul/long     0.014014     2.500000  # H1 HH1 ~
pair_coeff    3   17 lj/cut/coul/long     0.014014     2.500000  # H1 HH2 ~
pair_coeff    3   18 lj/cut/coul/long     0.014014     2.500000  # H1 HH3 ~
pair_coeff    3   19 lj/cut/coul/long     0.014014     2.500000  # H1 HH4 ~
pair_coeff    3   20 lj/cut/coul/long     0.000000     0.000000  # H1 HH5 ~
pair_coeff    3   21 lj/cut/coul/long     0.000000     0.000000  # H1 HH6 ~
pair_coeff    4    4 lj/cut/coul/long     0.065999     3.500000  # C1A C1A
pair_coeff    4    5 lj/cut/coul/long     0.065999     3.500000  # C1A COL
pair_coeff    4    6 lj/cut/coul/long     0.044497     2.958040  # C1A HC
pair_coeff    4    7 lj/cut/coul/long     0.105924     3.304542  # C1A OH
pair_coeff    4    8 lj/cut/coul/long     0.000000     0.000000  # C1A HO
pair_coeff    4    9 lj/cut/coul/long     0.055172     3.574213  # C1A Cl ~
pair_coeff    4   10 lj/cut/coul/long     0.030831     3.500000  # C1A CC1 ~
pair_coeff    4   11 lj/cut/coul/long     0.030831     3.500000  # C1A CC2 ~
pair_coeff    4   12 lj/cut/coul/long     0.031752     3.524911  # C1A CC3 ~
pair_coeff    4   13 lj/cut/coul/long     0.054996     3.218695  # C1A OO1 ~
pair_coeff    4   14 lj/cut/coul/long     0.049481     3.304542  # C1A OO2 ~
pair_coeff    4   15 lj/cut/coul/long     0.049481     3.304542  # C1A OO3 ~
pair_coeff    4   16 lj/cut/coul/long     0.020786     2.958040  # C1A HH1 ~
pair_coeff    4   17 lj/cut/coul/long     0.020786     2.958040  # C1A HH2 ~
pair_coeff    4   18 lj/cut/coul/long     0.020786     2.958040  # C1A HH3 ~
pair_coeff    4   19 lj/cut/coul/long     0.020786     2.958040  # C1A HH4 ~
pair_coeff    4   20 lj/cut/coul/long     0.000000     0.000000  # C1A HH5 ~
pair_coeff    4   21 lj/cut/coul/long     0.000000     0.000000  # C1A HH6 ~
pair_coeff    5    5 lj/cut/coul/long     0.065999     3.500000  # COL COL
pair_coeff    5    6 lj/cut/coul/long     0.044497     2.958040  # COL HC
pair_coeff    5    7 lj/cut/coul/long     0.105924     3.304542  # COL OH
pair_coeff    5    8 lj/cut/coul/long     0.000000     0.000000  # COL HO
pair_coeff    5    9 lj/cut/coul/long     0.055172     3.574213  # COL Cl ~
pair_coeff    5   10 lj/cut/coul/long     0.030831     3.500000  # COL CC1 ~
pair_coeff    5   11 lj/cut/coul/long     0.030831     3.500000  # COL CC2 ~
pair_coeff    5   12 lj/cut/coul/long     0.031752     3.524911  # COL CC3 ~
pair_coeff    5   13 lj/cut/coul/long     0.054996     3.218695  # COL OO1 ~
pair_coeff    5   14 lj/cut/coul/long     0.049481     3.304542  # COL OO2 ~
pair_coeff    5   15 lj/cut/coul/long     0.049481     3.304542  # COL OO3 ~
pair_coeff    5   16 lj/cut/coul/long     0.020786     2.958040  # COL HH1 ~
pair_coeff    5   17 lj/cut/coul/long     0.020786     2.958040  # COL HH2 ~
pair_coeff    5   18 lj/cut/coul/long     0.020786     2.958040  # COL HH3 ~
pair_coeff    5   19 lj/cut/coul/long     0.020786     2.958040  # COL HH4 ~
pair_coeff    5   20 lj/cut/coul/long     0.000000     0.000000  # COL HH5 ~
pair_coeff    5   21 lj/cut/coul/long     0.000000     0.000000  # COL HH6 ~
pair_coeff    6    6 lj/cut/coul/long     0.030000     2.500000  # HC HC
pair_coeff    6    7 lj/cut/coul/long     0.071414     2.792848  # HC OH
pair_coeff    6    8 lj/cut/coul/long     0.000000     0.000000  # HC HO
pair_coeff    6    9 lj/cut/coul/long     0.037197     3.020761  # HC Cl ~
pair_coeff    6   10 lj/cut/coul/long     0.020786     2.958040  # HC CC1 ~
pair_coeff    6   11 lj/cut/coul/long     0.020786     2.958040  # HC CC2 ~
pair_coeff    6   12 lj/cut/coul/long     0.021407     2.979094  # HC CC3 ~
pair_coeff    6   13 lj/cut/coul/long     0.037078     2.720294  # HC OO1 ~
pair_coeff    6   14 lj/cut/coul/long     0.033360     2.792848  # HC OO2 ~
pair_coeff    6   15 lj/cut/coul/long     0.033360     2.792848  # HC OO3 ~
pair_coeff    6   16 lj/cut/coul/long     0.014014     2.500000  # HC HH1 ~
pair_coeff    6   17 lj/cut/coul/long     0.014014     2.500000  # HC HH2 ~
pair_coeff    6   18 lj/cut/coul/long     0.014014     2.500000  # HC HH3 ~
pair_coeff    6   19 lj/cut/coul/long     0.014014     2.500000  # HC HH4 ~
pair_coeff    6   20 lj/cut/coul/long     0.000000     0.000000  # HC HH5 ~
pair_coeff    6   21 lj/cut/coul/long     0.000000     0.000000  # HC HH6 ~
pair_coeff    7    7 lj/cut/coul/long     0.170000     3.120000  # OH OH
pair_coeff    7    8 lj/cut/coul/long     0.000000     0.000000  # OH HO
pair_coeff    7    9 lj/cut/coul/long     0.088547     3.800000  # OH Cl ~
pair_coeff    7   10 lj/cut/coul/long     0.049481     3.304542  # OH CC1 ~
pair_coeff    7   11 lj/cut/coul/long     0.049481     3.304542  # OH CC2 ~
pair_coeff    7   12 lj/cut/coul/long     0.050959     3.328062  # OH CC3 ~
pair_coeff    7   13 lj/cut/coul/long     0.088263     3.038947  # OH OO1 ~
pair_coeff    7   14 lj/cut/coul/long     0.079414     3.120000  # OH OO2 ~
pair_coeff    7   15 lj/cut/coul/long     0.079414     3.120000  # OH OO3 ~
pair_coeff    7   16 lj/cut/coul/long     0.033360     2.792848  # OH HH1 ~
pair_coeff    7   17 lj/cut/coul/long     0.033360     2.792848  # OH HH2 ~
pair_coeff    7   18 lj/cut/coul/long     0.033360     2.792848  # OH HH3 ~
pair_coeff    7   19 lj/cut/coul/long     0.033360     2.792848  # OH HH4 ~
pair_coeff    7   20 lj/cut/coul/long     0.000000     0.000000  # OH HH5 ~
pair_coeff    7   21 lj/cut/coul/long     0.000000     0.000000  # OH HH6 ~
pair_coeff    8    8 lj/cut/coul/long     0.000000     0.000000  # HO HO
pair_coeff    8    9 lj/cut/coul/long     0.000000     0.000000  # HO Cl ~
pair_coeff    8   10 lj/cut/coul/long     0.000000     0.000000  # HO CC1 ~
pair_coeff    8   11 lj/cut/coul/long     0.000000     0.000000  # HO CC2 ~
pair_coeff    8   12 lj/cut/coul/long     0.000000     0.000000  # HO CC3 ~
pair_coeff    8   13 lj/cut/coul/long     0.000000     0.000000  # HO OO1 ~
pair_coeff    8   14 lj/cut/coul/long     0.000000     0.000000  # HO OO2 ~
pair_coeff    8   15 lj/cut/coul/long     0.000000     0.000000  # HO OO3 ~
pair_coeff    8   16 lj/cut/coul/long     0.000000     0.000000  # HO HH1 ~
pair_coeff    8   17 lj/cut/coul/long     0.000000     0.000000  # HO HH2 ~
pair_coeff    8   18 lj/cut/coul/long     0.000000     0.000000  # HO HH3 ~
pair_coeff    8   19 lj/cut/coul/long     0.000000     0.000000  # HO HH4 ~
pair_coeff    8   20 lj/cut/coul/long     0.000000     0.000000  # HO HH5 ~
pair_coeff    8   21 lj/cut/coul/long     0.000000     0.000000  # HO HH6 ~
pair_coeff    9    9 lj/cut/coul/long     0.198375     3.650000  # Cl Cl
pair_coeff    9   10 lj/cut/coul/long     0.058009     3.574213  # Cl CC1 ~
pair_coeff    9   11 lj/cut/coul/long     0.058009     3.574213  # Cl CC2 ~
pair_coeff    9   12 lj/cut/coul/long     0.059742     3.599653  # Cl CC3 ~
pair_coeff    9   13 lj/cut/coul/long     0.103476     3.286944  # Cl OO1 ~
pair_coeff    9   14 lj/cut/coul/long     0.093100     3.655000  # Cl OO2 ~
pair_coeff    9   15 lj/cut/coul/long     0.093100     3.465000  # Cl OO3 ~
pair_coeff    9   16 lj/cut/coul/long     0.039110     3.020761  # Cl HH1 ~
pair_coeff    9   17 lj/cut/coul/long     0.039110     3.020761  # Cl HH2 ~
pair_coeff    9   18 lj/cut/coul/long     0.039110     3.020761  # Cl HH3 ~
pair_coeff    9   19 lj/cut/coul/long     0.039110     3.020761  # Cl HH4 ~
pair_coeff    9   20 lj/cut/coul/long     0.000000     0.000000  # Cl HH5 ~
pair_coeff    9   21 lj/cut/coul/long     0.000000     0.000000  # Cl HH6 ~
pair_coeff   10   10 lj/cut/coul/long     0.043499     3.500000  # CC1 CC1 ~
pair_coeff   10   11 lj/cut/coul/long     0.043499     3.500000  # CC1 CC2 ~
pair_coeff   10   12 lj/cut/coul/long     0.044798     3.524911  # CC1 CC3 ~
pair_coeff   10   13 lj/cut/coul/long     0.077593     3.218695  # CC1 OO1 ~
pair_coeff   10   14 lj/cut/coul/long     0.069813     3.304542  # CC1 OO2 ~
pair_coeff   10   15 lj/cut/coul/long     0.069813     3.304542  # CC1 OO3 ~
pair_coeff   10   16 lj/cut/coul/long     0.029328     2.958040  # CC1 HH1 ~
pair_coeff   10   17 lj/cut/coul/long     0.029328     2.958040  # CC1 HH2 ~
pair_coeff   10   18 lj/cut/coul/long     0.029328     2.958040  # CC1 HH3 ~
pair_coeff   10   19 lj/cut/coul/long     0.029328     2.958040  # CC1 HH4 ~
pair_coeff   10   20 lj/cut/coul/long     0.000000     0.000000  # CC1 HH5 ~
pair_coeff   10   21 lj/cut/coul/long     0.000000     0.000000  # CC1 HH6 ~
pair_coeff   11   11 lj/cut/coul/long     0.043499     3.500000  # CC2 CC2 ~
pair_coeff   11   12 lj/cut/coul/long     0.044798     3.524911  # CC2 CC3 ~
pair_coeff   11   13 lj/cut/coul/long     0.077593     3.218695  # CC2 OO1 ~
pair_coeff   11   14 lj/cut/coul/long     0.069813     3.304542  # CC2 OO2 ~
pair_coeff   11   15 lj/cut/coul/long     0.069813     3.304542  # CC2 OO3 ~
pair_coeff   11   16 lj/cut/coul/long     0.029328     2.958040  # CC2 HH1 ~
pair_coeff   11   17 lj/cut/coul/long     0.029328     2.958040  # CC2 HH2 ~
pair_coeff   11   18 lj/cut/coul/long     0.029328     2.958040  # CC2 HH3 ~
pair_coeff   11   19 lj/cut/coul/long     0.029328     2.958040  # CC2 HH4 ~
pair_coeff   11   20 lj/cut/coul/long     0.000000     0.000000  # CC2 HH5 ~
pair_coeff   11   21 lj/cut/coul/long     0.000000     0.000000  # CC2 HH6 ~
pair_coeff   12   12 lj/cut/coul/long     0.046136     3.550000  # CC3 CC3 ~
pair_coeff   12   13 lj/cut/coul/long     0.079911     3.241605  # CC3 OO1 ~
pair_coeff   12   14 lj/cut/coul/long     0.071898     3.328062  # CC3 OO2 ~
pair_coeff   12   15 lj/cut/coul/long     0.071898     3.328062  # CC3 OO3 ~
pair_coeff   12   16 lj/cut/coul/long     0.030203     2.979094  # CC3 HH1 ~
pair_coeff   12   17 lj/cut/coul/long     0.030203     2.979094  # CC3 HH2 ~
pair_coeff   12   18 lj/cut/coul/long     0.030203     2.979094  # CC3 HH3 ~
pair_coeff   12   19 lj/cut/coul/long     0.030203     2.979094  # CC3 HH4 ~
pair_coeff   12   20 lj/cut/coul/long     0.000000     0.000000  # CC3 HH5 ~
pair_coeff   12   21 lj/cut/coul/long     0.000000     0.000000  # CC3 HH6 ~
pair_coeff   13   13 lj/cut/coul/long     0.138409     2.960000  # OO1 OO1 ~
pair_coeff   13   14 lj/cut/coul/long     0.124531     3.038947  # OO1 OO2 ~
pair_coeff   13   15 lj/cut/coul/long     0.124531     3.038947  # OO1 OO3 ~
pair_coeff   13   16 lj/cut/coul/long     0.052314     2.720294  # OO1 HH1 ~
pair_coeff   13   17 lj/cut/coul/long     0.052314     2.720294  # OO1 HH2 ~
pair_coeff   13   18 lj/cut/coul/long     0.052314     2.720294  # OO1 HH3 ~
pair_coeff   13   19 lj/cut/coul/long     0.052314     2.720294  # OO1 HH4 ~
pair_coeff   13   20 lj/cut/coul/long     0.000000     0.000000  # OO1 HH5 ~
pair_coeff   13   21 lj/cut/coul/long     0.000000     0.000000  # OO1 HH6 ~
pair_coeff   14   14 lj/cut/coul/long     0.112045     3.120000  # OO2 OO2 ~
pair_coeff   14   15 lj/cut/coul/long     0.112045     3.120000  # OO2 OO3 ~
pair_coeff   14   16 lj/cut/coul/long     0.047068     2.792848  # OO2 HH1 ~
pair_coeff   14   17 lj/cut/coul/long     0.047068     2.792848  # OO2 HH2 ~
pair_coeff   14   18 lj/cut/coul/long     0.047068     2.792848  # OO2 HH3 ~
pair_coeff   14   19 lj/cut/coul/long     0.047068     2.792848  # OO2 HH4 ~
pair_coeff   14   20 lj/cut/coul/long     0.000000     0.000000  # OO2 HH5 ~
pair_coeff   14   21 lj/cut/coul/long     0.000000     0.000000  # OO2 HH6 ~
pair_coeff   15   15 lj/cut/coul/long     0.112045     3.120000  # OO3 OO3 ~
pair_coeff   15   16 lj/cut/coul/long     0.047068     2.792848  # OO3 HH1 ~
pair_coeff   15   17 lj/cut/coul/long     0.047068     2.792848  # OO3 HH2 ~
pair_coeff   15   18 lj/cut/coul/long     0.047068     2.792848  # OO3 HH3 ~
pair_coeff   15   19 lj/cut/coul/long     0.047068     2.792848  # OO3 HH4 ~
pair_coeff   15   20 lj/cut/coul/long     0.000000     0.000000  # OO3 HH5 ~
pair_coeff   15   21 lj/cut/coul/long     0.000000     0.000000  # OO3 HH6 ~
pair_coeff   16   16 lj/cut/coul/long     0.019773     2.500000  # HH1 HH1 ~
pair_coeff   16   17 lj/cut/coul/long     0.019773     2.500000  # HH1 HH2 ~
pair_coeff   16   18 lj/cut/coul/long     0.019773     2.500000  # HH1 HH3 ~
pair_coeff   16   19 lj/cut/coul/long     0.019773     2.500000  # HH1 HH4 ~
pair_coeff   16   20 lj/cut/coul/long     0.000000     0.000000  # HH1 HH5 ~
pair_coeff   16   21 lj/cut/coul/long     0.000000     0.000000  # HH1 HH6 ~
pair_coeff   17   17 lj/cut/coul/long     0.019773     2.500000  # HH2 HH2 ~
pair_coeff   17   18 lj/cut/coul/long     0.019773     2.500000  # HH2 HH3 ~
pair_coeff   17   19 lj/cut/coul/long     0.019773     2.500000  # HH2 HH4 ~
pair_coeff   17   20 lj/cut/coul/long     0.000000     0.000000  # HH2 HH5 ~
pair_coeff   17   21 lj/cut/coul/long     0.000000     0.000000  # HH2 HH6 ~
pair_coeff   18   18 lj/cut/coul/long     0.019773     2.500000  # HH3 HH3 ~
pair_coeff   18   19 lj/cut/coul/long     0.019773     2.500000  # HH3 HH4 ~
pair_coeff   18   20 lj/cut/coul/long     0.000000     0.000000  # HH3 HH5 ~
pair_coeff   18   21 lj/cut/coul/long     0.000000     0.000000  # HH3 HH6 ~
pair_coeff   19   19 lj/cut/coul/long     0.019773     2.500000  # HH4 HH4 ~
pair_coeff   19   20 lj/cut/coul/long     0.000000     0.000000  # HH4 HH5 ~
pair_coeff   19   21 lj/cut/coul/long     0.000000     0.000000  # HH4 HH6 ~
pair_coeff   20   20 lj/cut/coul/long     0.000000     0.000000  # HH5 HH5 ~
pair_coeff   20   21 lj/cut/coul/long     0.000000     0.000000  # HH5 HH6 ~
pair_coeff   21   21 lj/cut/coul/long     0.000000     0.000000  # HH6 HH6 ~
